set GTH := T1 T2;
set H := H1;
set T := m1 m2 m3;

param demand := m1 280 m2 340 m3 310;
param cvar := T1 45 T2 80;
param Pmax_th := T1 200 T2 150;

param inflow:
        m1  m2  m3 :=
H1      80  40  30;

param Smin := H1 50;
param Smax := H1 250;
param S0 := H1 120;
param Rmax := H1 120;
param rho := H1 1.0;
param VOLL := 5000;
